data;

param w := 23;
param n := 19;
param min_h := 23;
param max_h := 36;

set BLOCKS := 1 2 3 4 5 6 7 8 9 10 11 12 13 14 15 16 17 18 19 ;

param:	width	height :=
	1	3	20
	2	4	12
	3	4	11
	4	3	14
	5	4	10
	6	3	12
	7	3	11
	8	3	10
	9	3	9
	10	4	6
	11	3	8
	12	3	7
	13	3	6
	14	6	3
	15	4	4
	16	3	5
	17	3	4
	18	4	3
	19	3	3;